WARNING: for repeatability, setting FPU to use double precision
============================[ Problem Statistics ]=============================
|                                                                             |
|  Number of variables:        134781                                         |
|  Number of clauses:          648661                                         |
|  Parse time:                   0.13 s                                       |
|                                                                             |
c ============================[ Search Statistics ]==============================
c | Conflicts |          ORIGINAL         |          LEARNT          | Progress |
c |           |    Vars  Clauses Literals |    Limit  Clauses Lit/Cl |          |
c ===============================================================================
c Switched to VSIDS.
c Switched to LRB.
c Switched to VSIDS.
c ===============================================================================
restarts                  : 399
conflicts                 : 120874         (94 /sec)
decisions                 : 15062463       (0.00 % random) (11764 /sec)
propagations              : 2643997381     (2064957 /sec)
conflict literals         : 7738366        (55.45 % deleted)

conflicts w/ DIP found    : 87131          (72.08 % of conflicts)
conflicts w/ dangerous DIP: 0              (0.00 % of conflicts)
conflicts w/ DIP-learning : 450            (0.37 % of conflicts)
decisions on ext vars     : 648            (0.00 % of decisions)
total ext vars            : 14          
tried delete ext vars     : 9           
deleted ext vars          : 9           
max ext vars              : 9           

Memory used               : 176.00 MB
CPU time                  : 1280.41 s
DIP computation time      : 169.38 s (13.23 % of total time)
ER_sel time               : 0.160967 s
ER_add time               : 0.000615 s
ER_delC time              : 0 s
ER_delV time              : 0.000329 s
ER_sub time               : 0.196968 s
ER_stat time              : 0 s

UNSATISFIABLE
